p cnf 70 37
e 70 0
e 35 0
e 69 0
e 34 0
e 68 0
e 33 0
e 67 0
e 32 0
e 66 0
e 31 0
e 65 0
e 30 0
e 64 0
e 29 0
e 63 0
e 28 0
e 62 0
e 27 0
e 61 0
e 26 0
e 60 0
e 25 0
e 59 0
a 24 0
a 58 0
a 23 0
a 57 0
a 22 0
a 56 0
a 21 0
a 55 0
a 20 0
a 54 0
a 19 0
a 53 0
a 18 0
a 52 0
a 17 0
a 51 0
a 16 0
a 50 0
a 15 0
a 49 0
a 14 0
a 48 0
a 13 0
e 47 0
e 12 0
e 46 0
e 11 0
e 45 0
e 10 0
e 44 0
e 9 0
e 43 0
e 8 0
e 42 0
e 7 0
e 41 0
e 6 0
e 40 0
e 5 0
e 39 0
e 4 0
e 38 0
e 3 0
e 37 0
e 2 0
e 36 0
e 1 0
-35 0
35 69 -34 -68 -33 0
34 68 -33 -67 -32 0
33 67 -32 -66 -31 0
32 66 -31 -65 -30 0
31 65 -30 -64 -29 0
30 64 -29 -63 -28 0
29 63 -28 -62 -27 0
28 62 -27 -61 -26 0
27 61 -26 -60 -25 0
26 60 -25 -59 -24 0
25 59 -24 -58 -23 0
24 58 -23 -57 -22 0
23 57 -22 -56 -21 0
22 56 -21 -55 -20 0
21 55 -20 -54 -19 0
20 54 -19 -53 -18 0
19 53 -18 -52 -17 0
18 52 -17 -51 -16 0
17 51 -16 -50 -15 0
16 50 -15 -49 -14 0
15 49 -14 -48 -13 0
14 48 -13 -47 -12 0
13 47 -12 -46 -11 0
12 46 -11 -45 -10 0
11 45 -10 -44 -9 0
10 44 -9 -43 -8 0
9 43 -8 -42 -7 0
8 42 -7 -41 -6 0
7 41 -6 -40 -5 0
6 40 -5 -39 -4 0
5 39 -4 -38 -3 0
4 38 -3 -37 -2 0
3 37 -2 -36 -1 0
2 1 0
2 -1 0
-2 1 0
